c description: Random 3-CNF over 15 variables and 15 clauses
c generator: CNFgen (0.9.0)
c copyright: (C) 2012-2020 Massimo Lauria <massimo.lauria@uniroma1.it>
c url: https://massimolauria.net/cnfgen
c
p cnf 15 15
-7 -9 14 0
-4 -7 15 0
-3 5 9 0
5 -9 -13 0
-2 -6 -12 0
-2 10 -13 0
2 11 -14 0
2 5 -14 0
-6 7 -9 0
-4 6 -15 0
-2 5 7 0
4 14 15 0
-3 5 -15 0
1 -7 9 0
-5 -8 13 0